&CONTROL
  calculation='relax',
  prefix='calc',
  pseudo_dir='/home/alatimer/bin/psp/esp_psp_w_gbrvRu/',
  outdir='.',
  tefield=.true.,
  dipfield=.true.,
  tprnfor=.true.,
/
&SYSTEM
  ibrav=0,
  celldm(1)=1.8897261245650618d0,
  nat=40,
  ntyp=4,
  ecutwfc=40.4242561699d0,
  ecutrho=404.242561699d0,
  nbnd=288,
  occupations='smearing',
  smearing='fd',
  degauss=0.00734986475817d0,
  nspin=2,
  starting_magnetization(1)=0.2d0,
  starting_magnetization(2)=0.5d0,
  starting_magnetization(3)=0.333333333333d0,
  starting_magnetization(4)=0.0d0,
  input_dft='BEEF-vdW',
  ensemble_energies=.true.,
  print_ensemble_energies=.true.,
  edir=3,
  emaxpos=0.0336490068375d0,
  eopreg=0.025d0,
  eamp=0.0d0,
/
&ELECTRONS
  diagonalization='david',
  conv_thr=7.34986475817e-07,
  mixing_ndim=10,
  electron_maxstep=500,
  mixing_beta=0.1d0,
  conv_thr=7.34986475817e-07,
/
&IONS
  ion_dynamics='ase3',
/
CELL_PARAMETERS
    6.955292318848990d0     0.000000000000000d0     0.000000000000000d0
    0.000000000000000d0     8.518458596539613d0     0.000000000000000d0
    0.000000000000000d0     0.000000000000000d0    41.797313483933117d0
ATOMIC_SPECIES
Pt1 195.08d0 Pt.UPF
C1 12.011d0 C.UPF
O1 15.9994d0 O.UPF
H1 1.00794d0 H.UPF
ATOMIC_POSITIONS {crystal}
Pt1      0.987060188607071d0     0.002244013168421d0     0.605457320167903d0
Pt1      0.981603553037251d0     0.327861035017782d0     0.604364169872254d0
Pt1      0.991775234570091d0     0.655153573590590d0     0.604973312821809d0
Pt1      0.657084690024501d0     0.830014666527985d0     0.587539835423193d0
Pt1      0.652703250478047d0     0.164834292957397d0     0.588287474221763d0
Pt1      0.655113108408466d0     0.496766059406648d0     0.588019175038107d0
Pt1      0.333035270885449d0     0.998071245213700d0     0.571345351424784d0
Pt1      0.331037211668887d0     0.332106574801090d0     0.571400215097060d0
Pt1      0.334892415148978d0     0.665335088989912d0     0.570929298300991d0
Pt1      0.006462992703450d0     0.833144670093432d0     0.547747753731711d0
Pt1      0.004633751643025d0     0.163588728598113d0     0.548308694496880d0
Pt1      0.004115178327243d0     0.502650206566308d0     0.548719201105963d0
Pt1      0.666346752665970d0     0.000449237829917d0     0.529110050705908d0
Pt1      0.666643220990493d0     0.333151636359448d0     0.529018173344694d0
Pt1      0.666516303517315d0     0.666438346416962d0     0.528986153349165d0
Pt1      0.337403579485258d0     0.834574844236715d0     0.509635544705406d0
Pt1      0.335872042380331d0     0.167959241337716d0     0.509810752338296d0
Pt1      0.335864724919629d0     0.500670990705488d0     0.509740015362493d0
Pt1      0.003896039137434d0     0.002834592137464d0     0.490163057274446d0
Pt1      0.003896039137434d0     0.336167925470797d0     0.490163057274446d0
Pt1      0.003896039137434d0     0.669501258804131d0     0.490163057274446d0
Pt1      0.670562705804103d0     0.836167925470797d0     0.470552010718853d0
Pt1      0.670562705804103d0     0.169501258804131d0     0.470552010718853d0
Pt1      0.670562705804103d0     0.502834592137465d0     0.470552010718853d0
Pt1      0.337229372470769d0     0.002834592137464d0     0.450940964163260d0
Pt1      0.337229372470769d0     0.336167925470797d0     0.450940964163260d0
Pt1      0.337229372470769d0     0.669501258804131d0     0.450940964163260d0
Pt1      0.003896039137434d0     0.836167925470797d0     0.431329917607667d0
Pt1      0.003896039137434d0     0.169501258804131d0     0.431329917607667d0
Pt1      0.003896039137434d0     0.502834592137465d0     0.431329917607667d0
Pt1      0.670562705804103d0     0.002834592137464d0     0.411718871052073d0
Pt1      0.670562705804103d0     0.336167925470797d0     0.411718871052073d0
Pt1      0.670562705804103d0     0.669501258804131d0     0.411718871052073d0
Pt1      0.337229372470769d0     0.836167925470797d0     0.392107824496480d0
Pt1      0.337229372470769d0     0.169501258804130d0     0.392107824496480d0
Pt1      0.337229372470769d0     0.502834592137465d0     0.392107824496480d0
C1       0.994412715102088d0     0.913326933639766d0     0.649265952260421d0
O1       0.005568708862510d0     0.768637655422674d0     0.653798779396058d0
O1       0.992581137109866d0     0.004938741350936d0     0.675190189178423d0
H1       0.979576984039044d0     0.114302215436078d0     0.668188736632385d0
K_POINTS automatic
3 3 1 0 0 0
