&CONTROL
  calculation='relax',
  prefix='calc',
  pseudo_dir='/home/alatimer/bin/psp/esp_psp_w_gbrvRu/',
  outdir='.',
  tefield=.true.,
  dipfield=.true.,
  tprnfor=.true.,
/
&SYSTEM
  ibrav=0,
  celldm(1)=1.8897261245650618d0,
  nat=40,
  ntyp=4,
  ecutwfc=29.3994590327d0,
  ecutrho=293.994590327d0,
  nbnd=288,
  occupations='smearing',
  smearing='fd',
  degauss=0.00734986475817d0,
  nspin=2,
  starting_magnetization(1)=0.2d0,
  starting_magnetization(2)=0.5d0,
  starting_magnetization(3)=0.333333333333d0,
  starting_magnetization(4)=0.0d0,
  input_dft='BEEF-vdW',
  ensemble_energies=.true.,
  print_ensemble_energies=.true.,
  edir=3,
  emaxpos=0.0386226215257d0,
  eopreg=0.025d0,
  eamp=0.0d0,
/
&ELECTRONS
  diagonalization='david',
  conv_thr=7.34986475817e-07,
  mixing_ndim=10,
  electron_maxstep=500,
  mixing_beta=0.1d0,
  conv_thr=7.34986475817e-07,
/
&IONS
  ion_dynamics='ase3',
/
CELL_PARAMETERS
    6.955292318848990d0     0.000000000000000d0     0.000000000000000d0
    0.000000000000000d0     8.518458596539613d0     0.000000000000000d0
    0.000000000000000d0     0.000000000000000d0    41.797313483933117d0
ATOMIC_SPECIES
Pt1 195.08d0 Pt.UPF
C1 12.011d0 C.UPF
O1 15.9994d0 O.UPF
H1 1.00794d0 H.UPF
ATOMIC_POSITIONS {crystal}
Pt1      0.995848668348775d0     0.007598554123565d0     0.604270296188029d0
Pt1      0.993323940650042d0     0.334949011301412d0     0.601447455770278d0
Pt1      0.989916252836796d0     0.669974963407143d0     0.603309637448690d0
Pt1      0.664173213549561d0     0.836755940626003d0     0.587804342561222d0
Pt1      0.656417207604819d0     0.168134584920022d0     0.587097983919002d0
Pt1      0.662808610242281d0     0.502157851358679d0     0.587745007815414d0
Pt1      0.341432296246836d0     0.001714229929499d0     0.570487971147447d0
Pt1      0.343071696768474d0     0.336871295449535d0     0.570121996148168d0
Pt1      0.339180771980168d0     0.669467027762734d0     0.571291030910107d0
Pt1      0.010133884358388d0     0.840032786798305d0     0.548161076676568d0
Pt1      0.011440779648022d0     0.166039538682316d0     0.546517330771955d0
Pt1      0.011186423661463d0     0.501469240047789d0     0.547070568885425d0
Pt1      0.669609996881898d0     0.002303779525238d0     0.529049295840898d0
Pt1      0.670834640157155d0     0.336419555582753d0     0.529082387934375d0
Pt1      0.670717897495998d0     0.669755981559403d0     0.529261374608096d0
Pt1      0.338450487997980d0     0.835827365013846d0     0.509565435982067d0
Pt1      0.341890605609677d0     0.169700275921225d0     0.509311657624251d0
Pt1      0.339258908658087d0     0.503439085407569d0     0.509453718351766d0
Pt1      0.003896039137434d0     0.002834592137464d0     0.490163057274446d0
Pt1      0.003896039137434d0     0.336167925470797d0     0.490163057274446d0
Pt1      0.003896039137434d0     0.669501258804131d0     0.490163057274446d0
Pt1      0.670562705804103d0     0.836167925470797d0     0.470552010718853d0
Pt1      0.670562705804103d0     0.169501258804131d0     0.470552010718853d0
Pt1      0.670562705804103d0     0.502834592137465d0     0.470552010718853d0
Pt1      0.337229372470769d0     0.002834592137464d0     0.450940964163260d0
Pt1      0.337229372470769d0     0.336167925470797d0     0.450940964163260d0
Pt1      0.337229372470769d0     0.669501258804131d0     0.450940964163260d0
Pt1      0.003896039137434d0     0.836167925470797d0     0.431329917607667d0
Pt1      0.003896039137434d0     0.169501258804131d0     0.431329917607667d0
Pt1      0.003896039137434d0     0.502834592137465d0     0.431329917607667d0
Pt1      0.670562705804103d0     0.002834592137464d0     0.411718871052073d0
Pt1      0.670562705804103d0     0.336167925470797d0     0.411718871052073d0
Pt1      0.670562705804103d0     0.669501258804131d0     0.411718871052073d0
Pt1      0.337229372470769d0     0.836167925470797d0     0.392107824496480d0
Pt1      0.337229372470769d0     0.169501258804130d0     0.392107824496480d0
Pt1      0.337229372470769d0     0.502834592137465d0     0.392107824496480d0
C1       0.001233341304729d0     0.163486504290598d0     0.648806103820245d0
O1       0.998723759794580d0     0.048055913532157d0     0.666027578031787d0
O1       0.006530277450343d0     0.309508949623846d0     0.661626511791894d0
H1       0.997729609235454d0     0.302339268774563d0     0.685137418554826d0
K_POINTS automatic
3 3 1 0 0 0
