&CONTROL
  calculation='relax',
  prefix='calc',
  pseudo_dir='/home/alatimer/bin/psp/gbrv/',
  outdir='.',
  tefield=.true.,
  dipfield=.true.,
  tprnfor=.true.,
/
&SYSTEM
  ibrav=0,
  celldm(1)=1.8897261245650618d0,
  nat=40,
  ntyp=4,
  ecutwfc=40.4242561699d0,
  ecutrho=404.242561699d0,
  nbnd=396,
  occupations='smearing',
  smearing='fd',
  degauss=0.00734986475817d0,
  nspin=2,
  starting_magnetization(1)=0.1875d0,
  starting_magnetization(2)=0.75d0,
  starting_magnetization(3)=0.5d0,
  starting_magnetization(4)=0.0d0,
  input_dft='BEEF',
  ensemble_energies=.true.,
  print_ensemble_energies=.true.,
  edir=3,
  emaxpos=0.0428434855487d0,
  eopreg=0.025d0,
  eamp=0.0d0,
/
&ELECTRONS
  diagonalization='david',
  conv_thr=7.34986475817e-07,
  mixing_ndim=10,
  electron_maxstep=300,
  mixing_beta=0.05d0,
  conv_thr=7.34986475817e-07,
/
&IONS
  ion_dynamics='ase3',
/
CELL_PARAMETERS
    6.910882722199821d0     0.000000000000000d0     0.000000000000000d0
    0.000000000000000d0     8.464068170802975d0     0.000000000000000d0
    0.000000000000000d0     0.000000000000000d0    40.959008734229471d0
ATOMIC_SPECIES
Pt1 195.08d0 Pt.UPF
C1 12.011d0 C.UPF
O1 15.9994d0 O.UPF
H1 1.00794d0 H.UPF
ATOMIC_POSITIONS {crystal}
Pt1      0.991969120669007d0     0.005407098793109d0     0.616092335600405d0
Pt1      0.986294457005344d0     0.331064776905443d0     0.613252049674745d0
Pt1      0.995680855167576d0     0.659408972470421d0     0.614524222035380d0
Pt1      0.663172034641667d0     0.834062370067617d0     0.596349439856228d0
Pt1      0.659310645979715d0     0.166868227784825d0     0.597059374246982d0
Pt1      0.661121862332081d0     0.500259239897720d0     0.596962266292055d0
Pt1      0.337383686378934d0     0.000925337939533d0     0.580447948965855d0
Pt1      0.337162633650802d0     0.334771109143597d0     0.580196065963606d0
Pt1      0.339437416687963d0     0.668458007454764d0     0.579791282145484d0
Pt1      0.008705064819772d0     0.835480009335544d0     0.556484262168974d0
Pt1      0.007764077831936d0     0.163922480193231d0     0.556994036712050d0
Pt1      0.007310707519784d0     0.505460197510219d0     0.557270614708092d0
Pt1      0.665563046785090d0     0.001793943153476d0     0.536885911128583d0
Pt1      0.668075972359605d0     0.334168672841481d0     0.536953241459387d0
Pt1      0.666513023955875d0     0.667539140147942d0     0.536885044562692d0
Pt1      0.334963765717899d0     0.834728527273199d0     0.517451229007461d0
Pt1      0.333703947136286d0     0.168274041124312d0     0.517606457234198d0
Pt1      0.334050480765403d0     0.500519998616947d0     0.517528889759850d0
Pt1      0.000000000000000d0     0.001261571652270d0     0.497382073613317d0
Pt1      0.000000000000000d0     0.334594904985603d0     0.497382073613317d0
Pt1      0.000000000000000d0     0.667928238318937d0     0.497382073613317d0
Pt1      0.666666666666667d0     0.834594904985603d0     0.477497428827108d0
Pt1      0.666666666666667d0     0.167928238318936d0     0.477497428827108d0
Pt1      0.666666666666667d0     0.501261571652270d0     0.477497428827108d0
Pt1      0.333333333333333d0     0.001261571652270d0     0.457612784040898d0
Pt1      0.333333333333333d0     0.334594904985603d0     0.457612784040898d0
Pt1      0.333333333333333d0     0.667928238318937d0     0.457612784040898d0
Pt1      0.000000000000000d0     0.834594904985603d0     0.437728139254689d0
Pt1      0.000000000000000d0     0.167928238318936d0     0.437728139254689d0
Pt1      0.000000000000000d0     0.501261571652270d0     0.437728139254689d0
Pt1      0.666666666666667d0     0.001261571652270d0     0.417843494468479d0
Pt1      0.666666666666667d0     0.334594904985603d0     0.417843494468479d0
Pt1      0.666666666666667d0     0.667928238318937d0     0.417843494468479d0
Pt1      0.333333333333333d0     0.834594904985603d0     0.397958849682270d0
Pt1      0.333333333333333d0     0.167928238318936d0     0.397958849682270d0
Pt1      0.333333333333333d0     0.501261571652270d0     0.397958849682270d0
C1       0.995012210730800d0     0.914884761109451d0     0.660573904554328d0
O1       0.004051924552711d0     0.769051256644810d0     0.664319312677045d0
O1       0.991010417338351d0     0.001492778647277d0     0.687728121415033d0
H1       0.982696762175757d0     0.114839616842637d0     0.681531484632940d0
K_POINTS automatic
6 6 1 0 0 0
