&CONTROL
  calculation='relax',
  prefix='calc',
  pseudo_dir='/home/alatimer/bin/psp/gbrv/',
  outdir='.',
  tefield=.true.,
  dipfield=.true.,
  tprnfor=.true.,
/
&SYSTEM
  ibrav=0,
  celldm(1)=1.8897261245650618d0,
  nat=36,
  ntyp=1,
  ecutwfc=40.4242561699d0,
  ecutrho=404.242561699d0,
  nbnd=388,
  occupations='smearing',
  smearing='fd',
  degauss=0.00734986475817d0,
  nspin=2,
  starting_magnetization(1)=0.1875d0,
  input_dft='BEEF',
  ensemble_energies=.true.,
  print_ensemble_energies=.true.,
  edir=3,
  emaxpos=0.00732439600642d0,
  eopreg=0.025d0,
  eamp=0.0d0,
/
&ELECTRONS
  diagonalization='david',
  conv_thr=7.34986475817e-07,
  mixing_ndim=10,
  electron_maxstep=300,
  mixing_beta=0.05d0,
  conv_thr=7.34986475817e-07,
/
&IONS
  ion_dynamics='ase3',
/
CELL_PARAMETERS
    6.910882722199821d0     0.000000000000000d0     0.000000000000000d0
    0.000000000000000d0     8.464068170802975d0     0.000000000000000d0
    0.000000000000000d0     0.000000000000000d0    40.959008734229471d0
ATOMIC_SPECIES
Pt1 195.08d0 Pt.UPF
ATOMIC_POSITIONS {crystal}
Pt1      0.000000000000000d0     0.001261571652270d0     0.616689942330575d0
Pt1      0.000000000000000d0     0.334594904985603d0     0.616689942330575d0
Pt1      0.000000000000000d0     0.667928238318937d0     0.616689942330575d0
Pt1      0.666666666666667d0     0.834594904985603d0     0.596805297544365d0
Pt1      0.666666666666667d0     0.167928238318936d0     0.596805297544365d0
Pt1      0.666666666666667d0     0.501261571652270d0     0.596805297544365d0
Pt1      0.333333333333333d0     0.001261571652270d0     0.576920652758156d0
Pt1      0.333333333333333d0     0.334594904985603d0     0.576920652758156d0
Pt1      0.333333333333333d0     0.667928238318937d0     0.576920652758156d0
Pt1      0.000000000000000d0     0.834594904985603d0     0.557036007971946d0
Pt1      0.000000000000000d0     0.167928238318936d0     0.557036007971946d0
Pt1      0.000000000000000d0     0.501261571652270d0     0.557036007971946d0
Pt1      0.666666666666667d0     0.001261571652270d0     0.537151363185737d0
Pt1      0.666666666666667d0     0.334594904985603d0     0.537151363185737d0
Pt1      0.666666666666667d0     0.667928238318937d0     0.537151363185737d0
Pt1      0.333333333333333d0     0.834594904985603d0     0.517266718399527d0
Pt1      0.333333333333333d0     0.167928238318936d0     0.517266718399527d0
Pt1      0.333333333333333d0     0.501261571652270d0     0.517266718399527d0
Pt1      0.000000000000000d0     0.001261571652270d0     0.497382073613317d0
Pt1      0.000000000000000d0     0.334594904985603d0     0.497382073613317d0
Pt1      0.000000000000000d0     0.667928238318937d0     0.497382073613317d0
Pt1      0.666666666666667d0     0.834594904985603d0     0.477497428827108d0
Pt1      0.666666666666667d0     0.167928238318936d0     0.477497428827108d0
Pt1      0.666666666666667d0     0.501261571652270d0     0.477497428827108d0
Pt1      0.333333333333333d0     0.001261571652270d0     0.457612784040898d0
Pt1      0.333333333333333d0     0.334594904985603d0     0.457612784040898d0
Pt1      0.333333333333333d0     0.667928238318937d0     0.457612784040898d0
Pt1      0.000000000000000d0     0.834594904985603d0     0.437728139254689d0
Pt1      0.000000000000000d0     0.167928238318936d0     0.437728139254689d0
Pt1      0.000000000000000d0     0.501261571652270d0     0.437728139254689d0
Pt1      0.666666666666667d0     0.001261571652270d0     0.417843494468479d0
Pt1      0.666666666666667d0     0.334594904985603d0     0.417843494468479d0
Pt1      0.666666666666667d0     0.667928238318937d0     0.417843494468479d0
Pt1      0.333333333333333d0     0.834594904985603d0     0.397958849682270d0
Pt1      0.333333333333333d0     0.167928238318936d0     0.397958849682270d0
Pt1      0.333333333333333d0     0.501261571652270d0     0.397958849682270d0
K_POINTS automatic
6 6 1 0 0 0
